# Solution for model r5_t18_m0_0
# Finished Task: 18 / 18
# Makespan: 425.0, Total Distance: 347.0, Total Time: 15.5877
# R O S F
0 0 20 0.0 0.0
1 1 14 0.0 0.0
2 2 8 0.0 0.0
3 3 11 0.0 0.0
4 4 19 0.0 0.0
5 3 -1 404.0 425.0
6 4 -1 371.0 401.0
7 3 10 301.0 329.0
8 2 17 148.0 179.0
9 1 18 107.0 146.0
10 3 5 352.0 391.0
11 3 21 170.0 208.0
12 0 -1 359.0 395.0
13 1 -1 257.0 296.0
14 1 9 66.0 97.0
15 2 16 338.0 368.0
16 2 -1 384.0 412.0
17 2 15 290.0 323.0
18 1 22 165.0 188.0
19 4 6 202.0 235.0
20 0 12 31.0 64.0
21 3 7 252.0 282.0
22 1 13 200.0 233.0
